; =========================================
; Z3 Solver Result
; =========================================

; STATUS: SAT

(set-logic QF_LIA)

(model
  (define-fun VM5Type () Int 341)
  (define-fun PriceProv2 () Int 210)
  (define-fun StorageProv5 () Int 2000)
  (define-fun C3_VM3 () Int 0)
  (define-fun C5_VM2 () Int 1)
  (define-fun VM2Type () Int 341)
  (define-fun C4_VM5 () Int 0)
  (define-fun C5_VM5 () Int 0)
  (define-fun C1_VM5 () Int 0)
  (define-fun StorageProv3 () Int 2000)
  (define-fun StorageProv4 () Int 2000)
  (define-fun C3_VM1 () Int 0)
  (define-fun VM4Type () Int 433)
  (define-fun PriceProv3 () Int 210)
  (define-fun PriceProv1 () Int 116)
  (define-fun ProcProv5 () Int 4)
  (define-fun C4_VM2 () Int 0)
  (define-fun C1_VM1 () Int 0)
  (define-fun PriceProv5 () Int 210)
  (define-fun StorageProv1 () Int 2000)
  (define-fun C2_VM5 () Int 0)
  (define-fun ProcProv3 () Int 4)
  (define-fun C2_VM4 () Int 1)
  (define-fun C1_VM2 () Int 0)
  (define-fun C2_VM3 () Int 0)
  (define-fun MemProv2 () Int 7500)
  (define-fun C3_VM5 () Int 1)
  (define-fun C1_VM3 () Int 1)
  (define-fun MemProv5 () Int 7500)
  (define-fun ProcProv4 () Int 2)
  (define-fun C2_VM1 () Int 0)
  (define-fun C2_VM2 () Int 0)
  (define-fun MemProv1 () Int 3750)
  (define-fun C5_VM3 () Int 0)
  (define-fun C5_VM4 () Int 0)
  (define-fun MemProv4 () Int 3750)
  (define-fun VM3Type () Int 341)
  (define-fun MemProv3 () Int 7500)
  (define-fun C4_VM1 () Int 1)
  (define-fun C3_VM4 () Int 0)
  (define-fun ProcProv1 () Int 2)
  (define-fun ProcProv2 () Int 4)
  (define-fun PriceProv4 () Int 116)
  (define-fun C3_VM2 () Int 0)
  (define-fun StorageProv2 () Int 2000)
  (define-fun C5_VM1 () Int 0)
  (define-fun C4_VM4 () Int 0)
  (define-fun C4_VM3 () Int 0)
  (define-fun VM1Type () Int 433)
  (define-fun C1_VM4 () Int 0)
)

; Optimized objective values
(define-fun objective1 () Int 862)

; =========================================
; Z3 Statistics (-st equivalent)
; =========================================

conflicts: 9996
decisions: 232248
propagations: 11352536
binary propagations: 11096243
restarts: 79
final checks: 49
added eqs: 537460
mk clause: 1934115
mk clause binary: 34529
del clause: 1931536
minimized lits: 2449573
num checks: 40
mk bool var: 39197
pb resolves: 130
pb conflicts: 132
pb propagations: 1393
pb predicates: 4
arith eq adapter: 6504
arith-lower: 3911633
arith-upper: 1439598
arith-conflicts: 1376
arith-bound-propagations-lp: 3650783
arith-diseq: 2634154
arith-make-feasible: 27087
arith-max-columns: 555
arith-max-rows: 17
arith-fixed-eqs: 2718
bv dynamic diseqs: 1913325
bv bit2core: 50146
bv->core eq: 70
solve-eqs-steps: 16
solve-eqs-elim-vars: 2
num allocs: 1386145962
rlimit count: 34740174
max memory: 44.18
memory: 38.56
time: 5.731

; End of SMT2LIB result file
